WARNING: for repeatability, setting FPU to use double precision
============================[ Problem Statistics ]=============================
|                                                                             |
|  Number of variables:            50                                         |
|  Number of clauses:             218                                         |
|  Parse time:                   0.00 s                                       |
|                                                                             |
============================[ Search Statistics ]==============================
| Conflicts |          ORIGINAL         |          LEARNT          | Progress |
|           |    Vars  Clauses Literals |    Limit  Clauses Lit/Cl |          |
===============================================================================
===============================================================================
restarts              : 1
conflicts             : 2              (1494 /sec)
decisions             : 15             (0.00 % random) (11202 /sec)
propagations          : 55             (41075 /sec)
conflict literals     : 8              (0.00 % deleted)
Memory used           : 20.00 MB
CPU time              : 0.001339 s

SATISFIABLE
